SimulationType                        MonteCarlo
NumberOfCycles                      20000
NumberOfInitializationCycles      10000

Forcefield                              Local
CutOff                                  14

Framework                             0
FrameworkName                     # S
UnitCells 	                              # UC
ExternalTemperature                # T
ExternalPressure                      # P

ChargeMethod                          Ewald
UseChargesFromCIFFile               yes
EwaldPrecision                          1e-6

RemoveAtomNumberCodeFromLabel yes
Movies                                          yes

Component 0 MoleculeName            # G
                   MoleculeDefinition       Local
                   TranslationProbability    1.0
                   RotationProbability       1.0
                   ReinsertionProbability    1.0
                   SwapProbability            1.0
                   CreateNumberOfMolecules 0             
