SimulationType                        MonteCarlo
NumberOfCycles                        20000
NumberOfInitializationCycles          10000


<<<<<<< HEAD
Forcefield                            Local
CutOff                                14

Framework                             0
FrameworkName                        #structure
UnitCells 	                                 #unitcell
ExternalTemperature                   #T
ExternalPressure                         #P
=======
Forcefield                            CO2N2H2O
CutOff                                14

Framework                             0
FrameworkName #structure
UnitCells 	#unitcell
ExternalTemperature                   #T
ExternalPressure                      100000
>>>>>>> 04b52f8f16bcd5c63e8428b2616e7fe32198d02e

ChargeMethod                          Ewald
UseChargesFromCIFFile                 yes
EwaldPrecision                        1e-6

RemoveAtomNumberCodeFromLabel yes
Movies                        no

Component 0 MoleculeName CO2
<<<<<<< HEAD
            MoleculeDefinition Local
=======
            MoleculeDefinition AllM
>>>>>>> 04b52f8f16bcd5c63e8428b2616e7fe32198d02e
            MolFraction       0.05
            TranslationProbability 1.0
            ReinsertionProbability 1.0
            SwapProbability       1.0
            IdentityChangeProbability 1.0
             NumberOfIdentityChanges 2
             IdentityChangesList     0 1
            CreateNumberOfMolecules 0

Component 1 MoleculeName N2
<<<<<<< HEAD
            MoleculeDefinition Local
=======
            MoleculeDefinition AllM
>>>>>>> 04b52f8f16bcd5c63e8428b2616e7fe32198d02e
            MolFraction         0.95
            TranslationProbability 1.0
            ReinsertionProbability 1.0
            SwapProbability       1.0
            IdentityChangeProbability 1.0
             NumberOfIdentityChanges 2
             IdentityChangesList     0 1
            CreateNumberOfMolecules 0                  
