SimulationType        MonteCarlo
NumberOfCycles        5000
NumberOfInitializationCycles 0
PrintEvery            2500
PrintPropertiesEvery  2500

Forcefield             Local
CutOff	            14

RemoveAtomNumberCodeFromLabel yes

ChargeMethod                     Ewald
EwaldPrecision                     1e-6
UseChargesFromCIFFile         yes

Framework 0
FrameworkName    # name
UnitCells              #unitcell
ExternalTemperature # T

Component 0 MoleculeName      CO2
            MoleculeDefinition        Local
            IdealRosenbluthValue      1.0
            WidomProbability          1.0
            CreateNumberOfMolecules   0
Component 1 MoleculeName      N2
            MoleculeDefinition        Local
            IdealRosenbluthValue      1.0
            WidomProbability          1.0
            CreateNumberOfMolecules   0
Component 2 MoleculeName      H2O
            MoleculeDefinition        Local
            IdealRosenbluthValue      1.0
            WidomProbability          1.0
            CreateNumberOfMolecules   0
