SimulationType                MonteCarlo
NumberOfCycles                100000
NumberOfInitializationCycles  1000
<<<<<<< HEAD
PrintEvery                    10000
RestartFile                   no
=======
PrintEvery                          10000
RestartFile                          no
>>>>>>> 04b52f8f16bcd5c63e8428b2616e7fe32198d02e

ChargeMethod                Ewald
EwaldPrecision                1e-6
Forcefield                       Local
<<<<<<< HEAD
CutOffVDW                    14
=======
CutOffVDW                     14
>>>>>>> 04b52f8f16bcd5c63e8428b2616e7fe32198d02e
RemoveAtomNumberCodeFromLabel yes

ComputeEnergyHistogram yes
WriteEnergyHistogramEvery 10
EnergyHistogram        1000
EnergyHistogramLowerLimit -10000
EnergyHistogramUpperLimit 1000

<<<<<<< HEAD
Framework             0
FrameworkName         #mof
UseChargesFromCIFFile yes
UnitCells             #unitcell
ExternalTemperature   298

Component 0 MoleculeName       CO2
            MoleculeDefinition        AllM
=======
Framework                 0
FrameworkName         #mof
UseChargesFromCIFFile yes
UnitCells                   #unitcell
ExternalTemperature   #T

Component 0 MoleculeName       CO2
            MoleculeDefinition        Local
>>>>>>> 04b52f8f16bcd5c63e8428b2616e7fe32198d02e
            TranslationProbability    1.0
            RotationProbability       1.0
            ReinsertionProbability    1.0
            CreateNumberOfMolecules   1
